65
30
0 30 31 32 34 38 39 43 47 48 49 50 51 53 54 57 60 62 64
1 31 34 37 38 39 43 44 45 48 49 50 51 53 54 58 59 60 62
2 30 31 33 36 38 39 43 46 48 50 53 54 58 59 60 64
3 30 31 32 33 38 39 45 46 48 50 53 54 60
4 30 32 36 39 40 43 45 46 48 52 53 56 59 60 62
5 31 32 33 36 37 38 39 40 43 44 45 46 47 48 50 54 58 59 64
6 33 36 38 39 42 45 46 47 50 51 53 54 58 60 63
7 31 32 33 34 36 39 40 43 45 46 48 49 50 52 53 54 58 59 60 62
8 30 32 33 34 36 38 41 42 46 47 49 52 53 55 58 59 60
9 30 31 32 33 36 37 38 39 43 45 46 48 49 50 51 53 54 60
10 31 32 33 34 38 39 40 46 48 49 51 54 58 59 64
11 31 32 34 36 39 40 41 45 48 49 50 51 53 55 58 59 60 61 62
12 31 33 34 40 42 46 47 49 50 51 60 62
13 31 33 35 36 37 45 49 51 53 58 59 60 64
14 32 34 38 44 51 53 60
15 30 31 33 34 36 38 40 43 44 45 47 48 50 51 52 53 58 59 60 64
16 30 34 39 42 43 45 49 50 58 64
17 30 33 34 37 40 41 42 43 44 45 46 49 50 52 58 59 62 64
18 34 36 39 40 41 43 48 49 54 64
19 30 34 36 38 44 48 62
20 30 31 32 36 48 54 55 58 59 60 62
21 34 36 37 38 39 43 44 46 48 51 54 55 60 62 64
22 37 64
23 32 33 42 43 60 62 63
24 37 41 51 52 58
25 30 32 33 39 40 43 44 47 48 52 53 58 62
26 37 50 61
27 36 42
28 46 62 63
29 33 35 40 50 56
